$molecule
0 1
C  -2.958315  -0.925405  -0.107303
C  -1.551483  -1.067173   0.402841
C  -3.156165   0.344488  -0.498458
C  -0.977470   0.321113   0.253061
H  -1.519318  -1.407382   1.447517
H  -0.983738  -1.806736  -0.179434
H  -3.672489  -1.738583  -0.148289
C  -1.926957   1.117125  -0.274397
H  -4.070187   0.752417  -0.915169
H  -1.811256   2.172683  -0.498042
C   0.422647   0.685571   0.639904
H   0.572350   1.759844   0.475320
H   0.570832   0.511051   1.715746
C   1.491882  -0.099261  -0.131166
H   1.369168  -1.173719   0.061774
H   1.334634   0.042211  -1.208559
C   2.912568   0.318522   0.241696
H   3.035947   1.391147   0.044312
H   3.055549   0.186369   1.322080
C   3.974071  -0.471096  -0.519719
H   4.984689  -0.157897  -0.242663
H   3.886002  -1.542974  -0.313148
H   3.863151  -0.331727  -1.600203
$end

$rem
METHOD M062X
BASIS 6-31G*
unrestricted    false
scf_algorithm   diis
scf_convergence 8
max_scf_cycles  200
thresh     14
symmetry   false
sym_ignore true
PURECART           1112
XC_GRID            000099000590
MEM_TOTAL          8000
MEM_STATIC         4000
$end
