! B3LYP/G cc-pVDZ cc-pVDZ/C
%maxcore 4000
* xyz 0 1
O          0.00000        0.00000        0.11779
H          0.00000        0.75545       -0.47116
H          0.00000       -0.75545       -0.47116
*
