%nprocshared=24
%mem=48GB
# pop=nbo6read 6-31g(d) um062x

Title Card Required

0 1
O          0.00000        0.00000        0.11779
H          0.00000        0.75545       -0.47116
H          0.00000       -0.75545       -0.47116

$nbo bndidx $end

