%nprocshared=24
%mem=48GB
# output=wfn guess=mix midix um062x

Title Card Required

0 2
 C                 -1.29921258   -0.24184477    0.00000000
 C                 -2.83921258   -0.24184477    0.00000000
 H                 -3.19587893    0.63267685    0.50289269
 H                 -3.19587893   -0.24358799   -1.00880428
 H                 -3.19587943   -1.11462320    0.50591161
 C                 -0.60091756    0.97318629   -0.00235602
 H                 -1.29781272    1.78505564   -0.01261764
 H                  0.00758892    1.03654549    0.87548536
 H                  0.02063468    1.02566053   -0.87173470
 C                 -0.60091756   -1.45687582    0.00235602
 H                 -0.69355935   -1.91963028    0.96265588
 H                 -1.00838676   -2.10387939   -0.74614597
 H                  0.43235700   -1.27482057   -0.20764297

test_g16.wfn


