! pal8 DLPNO-CCSD(T) cc-pVDZ cc-pVDZ/C
%maxcore 4000
* xyz 0 2
H          0.16704        0.24583       -0.09426
C         -2.02396        0.00483        0.08167
C          1.14858        0.30956       -0.79018
O         -0.82335        0.09786        0.80233
C         -2.31466        1.30909       -0.65729
H         -1.54594        1.49552       -1.40945
H         -3.28267        1.26768       -1.15966
H         -2.31705        2.14189        0.04638
C         -1.98683       -1.17823       -0.88351
H         -1.73570       -2.09150       -0.34277
H         -2.95283       -1.31192       -1.37325
H         -1.23225       -1.01397       -1.65545
C         -3.08155       -0.23489        1.16765
H         -2.86539       -1.15775        1.70491
H         -3.08552        0.59265        1.87642
H         -4.06703       -0.31266        0.70568
H          0.79332        0.60284       -1.77720
C          2.07786        1.30286       -0.08418
H          2.47628        2.04677       -0.77527
H          1.52677        1.84742        0.68527
C          1.79421       -1.06390       -0.68953
H          1.06450       -1.87416       -0.69986
H          2.47722       -1.21772       -1.53251
C          2.58774       -0.96839        0.61402
C          3.19060        0.43728        0.54243
H          3.51814        0.81212        1.51124
H          4.06238        0.42205       -0.11595
H          1.89596       -1.03594        1.45738
H          3.33765       -1.75133        0.72319
*
